0	39	372	0	200
1	113	179	0	200
2	123	390	0	200
3	306	149	0	200
4	165	10	0	200
5	50	19	0	200
6	482	135	0	200
7	25	329	0	200
8	337	79	0	200
9	379	395	0	200
10	476	24	0	200
11	172	243	0	200
12	164	8	0	200
13	400	189	0	200
14	382	104	0	200
15	148	90	0	200
16	214	103	0	200
17	226	385	0	200
18	59	94	0	200
19	57	247	0	200
20	87	187	0	200
21	479	249	0	200
22	64	102	0	200
23	58	181	0	200
24	360	293	0	200
